NAME matlab
ROWS
 N  OBJ
 E  R0      
 E  R1      
 E  R2      
 E  R3      
 E  R4      
 E  R5      
 E  R6      
 E  R7      
 E  R8      
 E  R9      
 E  R10     
 E  R11     
 E  R12     
 E  R13     
 E  R14     
COLUMNS
    C0        OBJ       -0.4
    C0        R0        0.125
    C0        R1        -1
    C0        R6        4.4454829892852130e+00
    C1        R2        1
    C1        R3        -1
    C1        R4        0.301
    C1        R5        1.06
    C1        R7        4.4454829892852130e+00
    C2        R0        9.9086378737541536e-01
    C2        R3        -1
    C2        R4        0.313
    C2        R5        1.06
    C2        R8        4.4454829892852130e+00
    C3        R0        1
    C3        R3        -1
    C3        R4        0.313
    C3        R5        0.96
    C3        R9        4.4454829892852130e+00
    C4        R0        1.0087209302325579e+00
    C4        R3        -1
    C4        R4        0.326
    C4        R5        0.86
    C4        R10       4.4454829892852130e+00
    C5        R0        9.8172757475083050e-01
    C5        R2        -1
    C5        R11       4.4454829892852130e+00
    C6        OBJ       -0.32
    C6        R1        1.4
    C6        R3        1
    C6        R12       4.4454829892852130e+00
    C7        OBJ       4.3599999999999972e-02
    C7        R0        -4.1528239202657807e-01
    C7        R1        0.109
    C7        R13       4.4454829892852130e+00
    C8        OBJ       -1.3199999999999998e+00
    C8        R0        5.8139534883720922e-01
    C8        R4        -1
    C8        R14       4.4454829892852130e+00
    C9        R1        1
    C10       R2        1
    C11       R3        1
    C12       R4        1
    C13       R5        1
    C14       R6        4.4454829892852130e+00
    C15       R7        4.4454829892852130e+00
    C16       R8        4.4454829892852130e+00
    C17       R9        4.4454829892852130e+00
    C18       R10       4.4454829892852130e+00
    C19       R11       4.4454829892852130e+00
    C20       R12       4.4454829892852130e+00
    C21       R13       4.4454829892852130e+00
    C22       R14       4.4454829892852130e+00
RHS
    RHS1      R2        80
    RHS1      R4        44
    RHS1      R5        300
    RHS1      R6        3.5563863914281706e+02
    RHS1      R7        1.2594181640512436e+03
    RHS1      R8        9.3251250756901118e+02
    RHS1      R9        9.2399291563965392e+02
    RHS1      R10       9.1600454269881834e+02
    RHS1      R11       9.4119067058334838e+02
    RHS1      R12       2.5428607247010348e+02
    RHS1      R13       2.2227414946426061e+03
    RHS1      R14       1.5892646141524529e+03
BOUNDS
ENDATA
